presolving:
(round 1, fast)       27500 del vars, 0 del conss, 0 add conss, 28000 chg bounds, 0 chg sides, 0 chg coeffs, 0 upgd conss, 0 impls, 0 clqs
(round 2, fast)       27500 del vars, 0 del conss, 0 add conss, 50067 chg bounds, 0 chg sides, 0 chg coeffs, 0 upgd conss, 0 impls, 0 clqs
   (0.2s) running MILP presolver
   (0.3s) MILP presolver (2 rounds): 0 aggregations, 0 fixings, 709 bound changes
(round 3, medium)     27500 del vars, 0 del conss, 0 add conss, 50776 chg bounds, 0 chg sides, 0 chg coeffs, 0 upgd conss, 0 impls, 0 clqs
   (0.4s) probing: 51/500 (10.2%) - 0 fixings, 0 aggregations, 0 implications, 0 bound changes
   (0.4s) probing aborted: 50/50 successive totally useless probings
   (0.4s) symmetry computation started: requiring (bin +, int -, cont +), (fixed: bin -, int +, cont -)
   (0.4s) no symmetry present
presolving (4 rounds: 4 fast, 2 medium, 1 exhaustive):
 27500 deleted vars, 0 deleted constraints, 0 added constraints, 50776 tightened bounds, 0 added holes, 0 changed sides, 0 changed coefficients
 0 implications, 0 cliques
presolved problem has 28500 variables (500 bin, 0 int, 0 impl, 28000 cont) and 556 constraints
    556 constraints of type <linear>
Presolving Time: 0.35

 time | node  | left  |LP iter|LP it/n|mem/heur|mdpt |vars |cons |rows |cuts |sepa|confs|strbr|  dualbound   | primalbound  |  gap   | compl. 
p 0.5s|     1 |     0 |   122 |     - |   locks|   0 |  28k| 556 | 556 |   0 |  0 |   0 |   0 | 0.000000e+00 | 1.539610e+05 |    Inf | unknown
i 0.5s|     1 |     0 |   122 |     - |  oneopt|   0 |  28k| 556 | 556 |   0 |  0 |   0 |   0 | 0.000000e+00 | 1.863200e+04 |    Inf | unknown
  0.9s|     1 |     0 |  2037 |     - |   220M |   0 |  28k| 556 | 556 |   0 |  0 |   0 |   0 | 7.345394e+03 | 1.863200e+04 | 153.66%| unknown
r 0.9s|     1 |     0 |  2037 |     - |simplero|   0 |  28k| 556 | 556 |   0 |  0 |   0 |   0 | 7.345394e+03 | 9.052000e+03 |  23.23%| unknown
r 0.9s|     1 |     0 |  2037 |     - |shifting|   0 |  28k| 556 | 556 |   0 |  0 |   0 |   0 | 7.345394e+03 | 8.835000e+03 |  20.28%| unknown
  0.9s|     1 |     0 |  2182 |     - |   230M |   0 |  28k| 556 | 572 |  16 |  1 |   0 |   0 | 7.452318e+03 | 8.835000e+03 |  18.55%| unknown
r 1.0s|     1 |     0 |  2182 |     - |shifting|   0 |  28k| 556 | 572 |  16 |  1 |   0 |   0 | 7.452318e+03 | 8.729500e+03 |  17.14%| unknown
  1.0s|     1 |     0 |  2224 |     - |   232M |   0 |  28k| 556 | 581 |  25 |  2 |   0 |   0 | 7.475878e+03 | 8.729500e+03 |  16.77%| unknown
r 1.0s|     1 |     0 |  2224 |     - |simplero|   0 |  28k| 556 | 581 |  25 |  2 |   0 |   0 | 7.475878e+03 | 8.640000e+03 |  15.57%| unknown
r 1.0s|     1 |     0 |  2224 |     - |shifting|   0 |  28k| 556 | 581 |  25 |  2 |   0 |   0 | 7.475878e+03 | 8.437000e+03 |  12.86%| unknown
  1.1s|     1 |     0 |  2307 |     - |   236M |   0 |  28k| 556 | 592 |  36 |  3 |   0 |   0 | 7.510033e+03 | 8.437000e+03 |  12.34%| unknown
r 1.1s|     1 |     0 |  2307 |     - |shifting|   0 |  28k| 556 | 592 |  36 |  3 |   0 |   0 | 7.510033e+03 | 8.419840e+03 |  12.11%| unknown
  1.2s|     1 |     0 |  2385 |     - |   239M |   0 |  28k| 556 | 596 |  40 |  4 |   0 |   0 | 7.522476e+03 | 8.419840e+03 |  11.93%| unknown
  1.4s|     1 |     0 |  2453 |     - |   244M |   0 |  28k| 556 | 603 |  47 |  5 |   0 |   0 | 7.531461e+03 | 8.419840e+03 |  11.80%| unknown
  1.5s|     1 |     0 |  2498 |     - |   245M |   0 |  28k| 556 | 613 |  57 |  6 |   0 |   0 | 7.543970e+03 | 8.419840e+03 |  11.61%| unknown
 time | node  | left  |LP iter|LP it/n|mem/heur|mdpt |vars |cons |rows |cuts |sepa|confs|strbr|  dualbound   | primalbound  |  gap   | compl. 
  1.7s|     1 |     0 |  2520 |     - |   249M |   0 |  28k| 556 | 619 |  63 |  7 |   0 |   0 | 7.546087e+03 | 8.419840e+03 |  11.58%| unknown
  1.8s|     1 |     0 |  2541 |     - |   251M |   0 |  28k| 556 | 624 |  68 |  8 |   0 |   0 | 7.547673e+03 | 8.419840e+03 |  11.56%| unknown
  2.1s|     1 |     0 |  2553 |     - |   257M |   0 |  28k| 556 | 630 |  74 |  9 |   0 |   0 | 7.547851e+03 | 8.419840e+03 |  11.55%| unknown
  2.3s|     1 |     0 |  2565 |     - |   260M |   0 |  28k| 556 | 634 |  78 | 10 |   0 |   0 | 7.548355e+03 | 8.419840e+03 |  11.55%| unknown
  2.6s|     1 |     0 |  2601 |     - |   260M |   0 |  28k| 556 | 637 |  81 | 11 |   0 |   0 | 7.549326e+03 | 8.419840e+03 |  11.53%| unknown
  2.9s|     1 |     0 |  2616 |     - |   263M |   0 |  28k| 556 | 641 |  85 | 12 |   0 |   0 | 7.550280e+03 | 8.419840e+03 |  11.52%| unknown
  3.1s|     1 |     0 |  2628 |     - |   267M |   0 |  28k| 556 | 643 |  87 | 13 |   0 |   0 | 7.550504e+03 | 8.419840e+03 |  11.51%| unknown
  3.5s|     1 |     0 |  2696 |     - |   269M |   0 |  28k| 556 | 646 |  90 | 14 |   0 |   0 | 7.551303e+03 | 8.419840e+03 |  11.50%| unknown
  3.8s|     1 |     0 |  2744 |     - |   273M |   0 |  28k| 556 | 651 |  95 | 15 |   0 |   0 | 7.551891e+03 | 8.419840e+03 |  11.49%| unknown
  4.2s|     1 |     0 |  2776 |     - |   278M |   0 |  28k| 556 | 644 |  96 | 16 |   0 |   0 | 7.552538e+03 | 8.419840e+03 |  11.48%| unknown
  4.5s|     1 |     0 |  2805 |     - |   280M |   0 |  28k| 556 | 646 |  98 | 17 |   0 |   0 | 7.553056e+03 | 8.419840e+03 |  11.48%| unknown
  4.8s|     1 |     0 |  2846 |     - |   281M |   0 |  28k| 556 | 652 | 104 | 18 |   0 |   0 | 7.554956e+03 | 8.419840e+03 |  11.45%| unknown
  5.2s|     1 |     0 |  2884 |     - |   283M |   0 |  28k| 556 | 660 | 112 | 19 |   0 |   0 | 7.555525e+03 | 8.419840e+03 |  11.44%| unknown
  5.6s|     1 |     0 |  2910 |     - |   284M |   0 |  28k| 556 | 662 | 114 | 20 |   0 |   0 | 7.556418e+03 | 8.419840e+03 |  11.43%| unknown
  6.1s|     1 |     0 |  2921 |     - |   288M |   0 |  28k| 556 | 667 | 119 | 21 |   0 |   0 | 7.556535e+03 | 8.419840e+03 |  11.42%| unknown
 time | node  | left  |LP iter|LP it/n|mem/heur|mdpt |vars |cons |rows |cuts |sepa|confs|strbr|  dualbound   | primalbound  |  gap   | compl. 
  6.6s|     1 |     0 |  2930 |     - |   290M |   0 |  28k| 556 | 660 | 123 | 22 |   0 |   0 | 7.556615e+03 | 8.419840e+03 |  11.42%| unknown
  7.2s|     1 |     0 |  2962 |     - |   293M |   0 |  28k| 556 | 664 | 127 | 23 |   0 |   0 | 7.556722e+03 | 8.419840e+03 |  11.42%| unknown
  7.7s|     1 |     0 |  3003 |     - |   294M |   0 |  28k| 556 | 670 | 133 | 24 |   0 |   0 | 7.556963e+03 | 8.419840e+03 |  11.42%| unknown
  8.3s|     1 |     0 |  3080 |     - |   298M |   0 |  28k| 556 | 676 | 139 | 25 |   0 |   0 | 7.558350e+03 | 8.419840e+03 |  11.40%| unknown
  8.9s|     1 |     0 |  3112 |     - |   298M |   0 |  28k| 556 | 679 | 142 | 26 |   0 |   0 | 7.559019e+03 | 8.419840e+03 |  11.39%| unknown
  9.6s|     1 |     0 |  3136 |     - |   303M |   0 |  28k| 556 | 685 | 148 | 27 |   0 |   0 | 7.559358e+03 | 8.419840e+03 |  11.38%| unknown
 10.4s|     1 |     0 |  3162 |     - |   305M |   0 |  28k| 556 | 676 | 154 | 28 |   0 |   0 | 7.559915e+03 | 8.419840e+03 |  11.37%| unknown
 10.9s|     1 |     0 |  3188 |     - |   306M |   0 |  28k| 556 | 679 | 157 | 29 |   0 |   0 | 7.560154e+03 | 8.419840e+03 |  11.37%| unknown
 11.6s|     1 |     0 |  3221 |     - |   306M |   0 |  28k| 556 | 684 | 162 | 30 |   0 |   0 | 7.560235e+03 | 8.419840e+03 |  11.37%| unknown
 12.2s|     1 |     0 |  3238 |     - |   309M |   0 |  28k| 556 | 688 | 166 | 31 |   0 |   0 | 7.560445e+03 | 8.419840e+03 |  11.37%| unknown
 12.9s|     1 |     0 |  3274 |     - |   310M |   0 |  28k| 556 | 691 | 169 | 32 |   0 |   0 | 7.560884e+03 | 8.419840e+03 |  11.36%| unknown
 13.7s|     1 |     0 |  3293 |     - |   312M |   0 |  28k| 556 | 695 | 173 | 33 |   0 |   0 | 7.560941e+03 | 8.419840e+03 |  11.36%| unknown
 14.4s|     1 |     0 |  3304 |     - |   312M |   0 |  28k| 556 | 681 | 175 | 34 |   0 |   0 | 7.561012e+03 | 8.419840e+03 |  11.36%| unknown
 15.0s|     1 |     0 |  3327 |     - |   314M |   0 |  28k| 556 | 685 | 179 | 35 |   0 |   0 | 7.561099e+03 | 8.419840e+03 |  11.36%| unknown
r15.6s|     1 |     0 |  4834 |     - |intshift|   0 |  28k| 556 | 685 | 179 | 35 |   0 |   0 | 7.561099e+03 | 8.233000e+03 |   8.89%| unknown
 time | node  | left  |LP iter|LP it/n|mem/heur|mdpt |vars |cons |rows |cuts |sepa|confs|strbr|  dualbound   | primalbound  |  gap   | compl. 
d15.9s|     1 |     0 |  5128 |     - |farkasdi|   0 |  28k| 556 | 685 |   0 | 35 |   0 |   0 | 7.561099e+03 | 8.214047e+03 |   8.64%| unknown
d16.0s|     1 |     0 |  5161 |     - |farkasdi|   0 |  28k| 556 | 685 |   0 | 35 |   0 |   0 | 7.561099e+03 | 8.091047e+03 |   7.01%| unknown
d16.0s|     1 |     0 |  5179 |     - |farkasdi|   0 |  28k| 556 | 685 |   0 | 35 |   0 |   0 | 7.561099e+03 | 8.018727e+03 |   6.05%| unknown
d16.0s|     1 |     0 |  5201 |     - |farkasdi|   0 |  28k| 556 | 685 |   0 | 35 |   0 |   0 | 7.561099e+03 | 7.884047e+03 |   4.27%| unknown
d16.0s|     1 |     0 |  5209 |     - |farkasdi|   0 |  28k| 556 | 685 |   0 | 35 |   0 |   0 | 7.561099e+03 | 7.869000e+03 |   4.07%| unknown
d16.0s|     1 |     0 |  5221 |     - |farkasdi|   0 |  28k| 556 | 685 |   0 | 35 |   0 |   0 | 7.561099e+03 | 7.858000e+03 |   3.93%| unknown
d16.1s|     1 |     0 |  5238 |     - |farkasdi|   0 |  28k| 556 | 685 |   0 | 35 |   0 |   0 | 7.561099e+03 | 7.845000e+03 |   3.75%| unknown
d16.1s|     1 |     0 |  5241 |     - |farkasdi|   0 |  28k| 556 | 685 |   0 | 35 |   0 |   0 | 7.561099e+03 | 7.837000e+03 |   3.65%| unknown
L21.2s|     1 |     0 |  7354 |     - |    rens|   0 |  28k| 556 | 685 | 179 | 35 |   0 |   0 | 7.561099e+03 | 7.583000e+03 |   0.29%| unknown
 21.7s|     1 |     0 |  7354 |     - |   368M |   0 |  28k| 556 | 685 | 179 | 35 |   0 |   0 | 7.561099e+03 | 7.583000e+03 |   0.29%| unknown
 21.7s|     1 |     0 |  7354 |     - |   378M |   0 |  28k| 556 | 685 | 179 | 35 |   0 |   0 | 7.561099e+03 | 7.583000e+03 |   0.29%| unknown
 22.4s|     1 |     0 |  7366 |     - |   379M |   0 |  28k| 556 | 687 | 181 | 36 |   0 |   0 | 7.561193e+03 | 7.583000e+03 |   0.29%| unknown
 22.4s|     1 |     0 |  7367 |     - |   379M |   0 |  28k| 556 | 688 | 182 | 37 |   0 |   0 | 7.561193e+03 | 7.583000e+03 |   0.29%| unknown
 22.5s|     1 |     0 |  7367 |     - |   379M |   0 |  28k| 143 | 688 | 182 | 37 |   0 |   0 | 7.561193e+03 | 7.583000e+03 |   0.29%| unknown
 22.7s|     1 |     0 |  7375 |     - |   380M |   0 |  28k| 143 | 691 | 185 | 38 |   0 |   0 | 7.561274e+03 | 7.583000e+03 |   0.29%| unknown
 time | node  | left  |LP iter|LP it/n|mem/heur|mdpt |vars |cons |rows |cuts |sepa|confs|strbr|  dualbound   | primalbound  |  gap   | compl. 
 22.8s|     1 |     0 |  7382 |     - |   380M |   0 |  28k| 143 | 668 | 186 | 39 |   0 |   0 | 7.561320e+03 | 7.583000e+03 |   0.29%| unknown
(run 1, node 1) restarting after 418 global fixings of integer variables

(restart) converted 112 cuts from the global cut pool into linear constraints

presolving:
(round 1, fast)       23546 del vars, 0 del conss, 0 add conss, 0 chg bounds, 0 chg sides, 0 chg coeffs, 0 upgd conss, 0 impls, 0 clqs
   (24.0s) running MILP presolver
   (24.0s) MILP presolver found nothing
(round 2, exhaustive) 23546 del vars, 0 del conss, 0 add conss, 0 chg bounds, 0 chg sides, 0 chg coeffs, 39 upgd conss, 0 impls, 0 clqs
presolving (3 rounds: 3 fast, 2 medium, 2 exhaustive):
 23546 deleted vars, 0 deleted constraints, 0 added constraints, 0 tightened bounds, 0 added holes, 0 changed sides, 0 changed coefficients
 39 implications, 0 cliques
presolved problem has 4954 variables (82 bin, 0 int, 0 impl, 4872 cont) and 255 constraints
     39 constraints of type <varbound>
    216 constraints of type <linear>
Presolving Time: 1.60
transformed 8/100 original solutions to the transformed problem space

 time | node  | left  |LP iter|LP it/n|mem/heur|mdpt |vars |cons |rows |cuts |sepa|confs|strbr|  dualbound   | primalbound  |  gap   | compl. 
 24.2s|     1 |     0 |  8236 |     - |   451M |   0 |4954 | 255 | 255 |   0 |  0 |   0 |   0 | 7.561320e+03 | 7.583000e+03 |   0.29%| unknown
 24.2s|     1 |     0 |  8236 |     - |   451M |   0 |4954 | 255 | 255 |   0 |  0 |   0 |   0 | 7.561320e+03 | 7.583000e+03 |   0.29%| unknown
 24.3s|     1 |     0 |  8275 |     - |   452M |   0 |4954 | 255 | 260 |   5 |  1 |   0 |   0 | 7.561936e+03 | 7.583000e+03 |   0.28%| unknown
 24.3s|     1 |     0 |  8275 |     - |   452M |   0 |4954 | 255 | 260 |   5 |  1 |   0 |   0 | 7.561936e+03 | 7.583000e+03 |   0.28%| unknown
 24.4s|     1 |     0 |  8307 |     - |   453M |   0 |4954 | 255 | 267 |  12 |  2 |   0 |   0 | 7.562141e+03 | 7.583000e+03 |   0.28%| unknown
 24.5s|     1 |     0 |  8333 |     - |   453M |   0 |4954 | 255 | 272 |  17 |  3 |   0 |   0 | 7.562288e+03 | 7.583000e+03 |   0.27%| unknown
 24.5s|     1 |     0 |  8333 |     - |   453M |   0 |4954 | 255 | 272 |  17 |  3 |   0 |   0 | 7.562288e+03 | 7.583000e+03 |   0.27%| unknown
 24.6s|     1 |     0 |  8353 |     - |   453M |   0 |4954 | 255 | 277 |  22 |  4 |   0 |   0 | 7.562415e+03 | 7.583000e+03 |   0.27%| unknown
 24.8s|     1 |     0 |  8370 |     - |   453M |   0 |4954 | 255 | 283 |  28 |  5 |   0 |   0 | 7.562643e+03 | 7.583000e+03 |   0.27%| unknown
 24.8s|     1 |     0 |  8370 |     - |   453M |   0 |4954 | 255 | 283 |  28 |  5 |   0 |   0 | 7.562643e+03 | 7.583000e+03 |   0.27%| unknown
 24.9s|     1 |     0 |  8392 |     - |   454M |   0 |4954 | 255 | 287 |  32 |  6 |   0 |   0 | 7.562764e+03 | 7.583000e+03 |   0.27%| unknown
 24.9s|     1 |     0 |  8392 |     - |   454M |   0 |4954 | 255 | 287 |  32 |  6 |   0 |   0 | 7.562764e+03 | 7.583000e+03 |   0.27%| unknown
 25.1s|     1 |     0 |  8411 |     - |   454M |   0 |4954 | 255 | 291 |  36 |  7 |   0 |   0 | 7.563028e+03 | 7.583000e+03 |   0.26%| unknown
 25.2s|     1 |     0 |  8449 |     - |   454M |   0 |4954 | 255 | 297 |  42 |  8 |   0 |   0 | 7.563561e+03 | 7.583000e+03 |   0.26%| unknown
 25.3s|     1 |     0 |  8471 |     - |   454M |   0 |4954 | 255 | 302 |  47 |  9 |   0 |   0 | 7.563668e+03 | 7.583000e+03 |   0.26%| unknown
 time | node  | left  |LP iter|LP it/n|mem/heur|mdpt |vars |cons |rows |cuts |sepa|confs|strbr|  dualbound   | primalbound  |  gap   | compl. 
 25.5s|     1 |     0 |  8498 |     - |   454M |   0 |4954 | 255 | 306 |  51 | 10 |   0 |   0 | 7.563955e+03 | 7.583000e+03 |   0.25%| unknown
 25.6s|     1 |     0 |  8507 |     - |   454M |   0 |4954 | 255 | 281 |  54 | 11 |   0 |   0 | 7.563976e+03 | 7.583000e+03 |   0.25%| unknown
 25.6s|     1 |     0 |  8507 |     - |   454M |   0 |4954 | 241 | 281 |  54 | 11 |   0 |   0 | 7.563976e+03 | 7.583000e+03 |   0.25%| unknown
 25.8s|     1 |     0 |  8529 |     - |   455M |   0 |4954 | 241 | 284 |  57 | 12 |   0 |   0 | 7.564026e+03 | 7.583000e+03 |   0.25%| unknown
 25.9s|     1 |     0 |  8533 |     - |   455M |   0 |4954 | 241 | 288 |  61 | 13 |   0 |   0 | 7.564026e+03 | 7.583000e+03 |   0.25%| unknown
 26.1s|     1 |     0 |  8545 |     - |   455M |   0 |4954 | 241 | 293 |  66 | 15 |   0 |   0 | 7.564092e+03 | 7.583000e+03 |   0.25%| unknown
 26.2s|     1 |     0 |  8551 |     - |   455M |   0 |4954 | 241 | 295 |  68 | 16 |   0 |   0 | 7.564102e+03 | 7.583000e+03 |   0.25%| unknown
 26.3s|     1 |     0 |  8555 |     - |   455M |   0 |4954 | 241 | 296 |  69 | 17 |   0 |   0 | 7.564117e+03 | 7.583000e+03 |   0.25%| unknown
 26.5s|     1 |     0 |  8569 |     - |   455M |   0 |4954 | 241 | 274 |  73 | 18 |   0 |   0 | 7.564232e+03 | 7.583000e+03 |   0.25%| unknown
 26.6s|     1 |     0 |  8586 |     - |   455M |   0 |4954 | 241 | 280 |  79 | 19 |   0 |   0 | 7.564300e+03 | 7.583000e+03 |   0.25%| unknown
 26.8s|     1 |     0 |  8591 |     - |   456M |   0 |4954 | 241 | 283 |  82 | 20 |   0 |   0 | 7.564335e+03 | 7.583000e+03 |   0.25%| unknown
 26.9s|     1 |     0 |  8604 |     - |   456M |   0 |4954 | 241 | 285 |  84 | 21 |   0 |   0 | 7.564407e+03 | 7.583000e+03 |   0.25%| unknown
 27.1s|     1 |     0 |  8615 |     - |   456M |   0 |4954 | 241 | 288 |  87 | 22 |   0 |   0 | 7.564434e+03 | 7.583000e+03 |   0.25%| unknown
L28.1s|     1 |     0 |  8862 |     - |    rens|   0 |4954 | 248 | 288 |  87 | 22 |7599 |   0 | 7.564434e+03 | 7.577000e+03 |   0.17%| unknown
(run 2, node 1) restarting after 12 global fixings of integer variables

(restart) converted 71 cuts from the global cut pool into linear constraints

presolving:
(round 1, fast)       628 del vars, 1 del conss, 0 add conss, 0 chg bounds, 0 chg sides, 0 chg coeffs, 0 upgd conss, 39 impls, 0 clqs
(round 2, exhaustive) 628 del vars, 4 del conss, 0 add conss, 0 chg bounds, 3 chg sides, 0 chg coeffs, 0 upgd conss, 39 impls, 0 clqs
(round 3, exhaustive) 628 del vars, 4 del conss, 0 add conss, 0 chg bounds, 3 chg sides, 0 chg coeffs, 2 upgd conss, 39 impls, 0 clqs
(round 4, medium)     628 del vars, 5 del conss, 0 add conss, 0 chg bounds, 3 chg sides, 0 chg coeffs, 2 upgd conss, 40 impls, 0 clqs
presolving (5 rounds: 5 fast, 4 medium, 3 exhaustive):
 628 deleted vars, 5 deleted constraints, 0 added constraints, 0 tightened bounds, 0 added holes, 3 changed sides, 4 changed coefficients
 40 implications, 0 cliques
presolved problem has 4326 variables (70 bin, 0 int, 0 impl, 4256 cont) and 314 constraints
     37 constraints of type <varbound>
    271 constraints of type <linear>
      6 constraints of type <logicor>
Presolving Time: 1.73
transformed 7/100 original solutions to the transformed problem space

 time | node  | left  |LP iter|LP it/n|mem/heur|mdpt |vars |cons |rows |cuts |sepa|confs|strbr|  dualbound   | primalbound  |  gap   | compl. 
 28.4s|     1 |     0 | 10059 |     - |   460M |   0 |4326 | 314 | 308 |   0 |  0 |7599 |   0 | 7.564434e+03 | 7.577000e+03 |   0.17%| unknown
 28.4s|     1 |     0 | 10059 |     - |   460M |   0 |4326 | 314 | 308 |   0 |  0 |7599 |   0 | 7.564434e+03 | 7.577000e+03 |   0.17%| unknown
 28.6s|     1 |     0 | 10061 |     - |   460M |   0 |4326 | 314 | 310 |   2 |  1 |7599 |   0 | 7.564448e+03 | 7.577000e+03 |   0.17%| unknown
 28.8s|     1 |     0 | 10069 |     - |   460M |   0 |4326 | 314 | 311 |   3 |  2 |7599 |   0 | 7.564470e+03 | 7.577000e+03 |   0.17%| unknown
 29.0s|     1 |     0 | 10086 |     - |   460M |   0 |4326 | 314 | 315 |   7 |  3 |7599 |   0 | 7.564529e+03 | 7.577000e+03 |   0.16%| unknown
 29.2s|     1 |     0 | 10091 |     - |   460M |   0 |4326 | 314 | 318 |  10 |  4 |7599 |   0 | 7.564541e+03 | 7.577000e+03 |   0.16%| unknown
 29.4s|     1 |     0 | 10105 |     - |   460M |   0 |4326 | 314 | 321 |  13 |  5 |7599 |   0 | 7.564577e+03 | 7.577000e+03 |   0.16%| unknown
 29.4s|     1 |     0 | 10105 |     - |   460M |   0 |4326 | 314 | 321 |  13 |  5 |7599 |   0 | 7.564577e+03 | 7.577000e+03 |   0.16%| unknown
 29.6s|     1 |     0 | 10115 |     - |   461M |   0 |4326 | 314 | 325 |  17 |  6 |7599 |   0 | 7.564596e+03 | 7.577000e+03 |   0.16%| unknown
 29.8s|     1 |     0 | 10127 |     - |   461M |   0 |4326 | 314 | 329 |  21 |  7 |7599 |   0 | 7.564627e+03 | 7.577000e+03 |   0.16%| unknown
 30.0s|     1 |     0 | 10143 |     - |   461M |   0 |4326 | 314 | 332 |  24 |  8 |7599 |   0 | 7.564679e+03 | 7.577000e+03 |   0.16%| unknown
 30.0s|     1 |     0 | 10143 |     - |   461M |   0 |4326 | 314 | 332 |  24 |  8 |7599 |   0 | 7.564679e+03 | 7.577000e+03 |   0.16%| unknown
 30.1s|     1 |     0 | 10149 |     - |   461M |   0 |4326 | 314 | 334 |  26 |  9 |7599 |   0 | 7.564694e+03 | 7.577000e+03 |   0.16%| unknown
 30.3s|     1 |     0 | 10157 |     - |   461M |   0 |4326 | 314 | 337 |  29 | 10 |7599 |   0 | 7.564703e+03 | 7.577000e+03 |   0.16%| unknown
 30.6s|     1 |     0 | 10162 |     - |   461M |   0 |4326 | 314 | 339 |  31 | 11 |7599 |   0 | 7.564706e+03 | 7.577000e+03 |   0.16%| unknown
 time | node  | left  |LP iter|LP it/n|mem/heur|mdpt |vars |cons |rows |cuts |sepa|confs|strbr|  dualbound   | primalbound  |  gap   | compl. 
 30.6s|     1 |     0 | 10162 |     - |   461M |   0 |4326 | 299 | 339 |  31 | 11 |7599 |   0 | 7.564706e+03 | 7.577000e+03 |   0.16%| unknown
 30.8s|     1 |     0 | 10176 |     - |   461M |   0 |4326 | 299 | 341 |  33 | 12 |7599 |   0 | 7.564716e+03 | 7.577000e+03 |   0.16%| unknown
 31.0s|     1 |     0 | 10179 |     - |   461M |   0 |4326 | 299 | 342 |  34 | 13 |7599 |   0 | 7.564718e+03 | 7.577000e+03 |   0.16%| unknown
 31.2s|     1 |     0 | 10188 |     - |   461M |   0 |4326 | 299 | 255 |  36 | 14 |7599 |   0 | 7.564725e+03 | 7.577000e+03 |   0.16%| unknown
 31.3s|     1 |     0 | 10193 |     - |   461M |   0 |4326 | 299 | 256 |  37 | 15 |7599 |   0 | 7.564729e+03 | 7.577000e+03 |   0.16%| unknown
 31.5s|     1 |     0 | 10198 |     - |   461M |   0 |4326 | 299 | 258 |  39 | 16 |7599 |   0 | 7.564735e+03 | 7.577000e+03 |   0.16%| unknown
 31.6s|     1 |     0 | 10207 |     - |   461M |   0 |4326 | 299 | 260 |  41 | 17 |7599 |   0 | 7.564738e+03 | 7.577000e+03 |   0.16%| unknown
 31.7s|     1 |     0 | 10213 |     - |   461M |   0 |4326 | 299 | 261 |  42 | 18 |7599 |   0 | 7.564742e+03 | 7.577000e+03 |   0.16%| unknown
 31.9s|     1 |     0 | 10221 |     - |   461M |   0 |4326 | 299 | 262 |  43 | 19 |7599 |   0 | 7.564746e+03 | 7.577000e+03 |   0.16%| unknown
 32.0s|     1 |     0 | 10225 |     - |   461M |   0 |4326 | 299 | 245 |  44 | 20 |7599 |   0 | 7.564747e+03 | 7.577000e+03 |   0.16%| unknown
 32.1s|     1 |     0 | 10236 |     - |   461M |   0 |4326 | 299 | 247 |  46 | 21 |7599 |   0 | 7.564755e+03 | 7.577000e+03 |   0.16%| unknown
 32.3s|     1 |     0 | 10240 |     - |   461M |   0 |4326 | 299 | 249 |  48 | 22 |7599 |   0 | 7.564756e+03 | 7.577000e+03 |   0.16%| unknown
(run 3, node 1) restarting after 12 global fixings of integer variables

(restart) converted 39 cuts from the global cut pool into linear constraints

presolving:
(round 1, fast)       516 del vars, 0 del conss, 0 add conss, 0 chg bounds, 0 chg sides, 0 chg coeffs, 0 upgd conss, 40 impls, 0 clqs
   (32.5s) running MILP presolver
   (32.5s) MILP presolver found nothing
(round 2, exhaustive) 516 del vars, 1 del conss, 0 add conss, 0 chg bounds, 1 chg sides, 0 chg coeffs, 0 upgd conss, 40 impls, 0 clqs
(round 3, exhaustive) 516 del vars, 3 del conss, 0 add conss, 0 chg bounds, 1 chg sides, 0 chg coeffs, 0 upgd conss, 40 impls, 0 clqs
presolving (4 rounds: 4 fast, 3 medium, 3 exhaustive):
 516 deleted vars, 3 deleted constraints, 0 added constraints, 0 tightened bounds, 0 added holes, 1 changed sides, 0 changed coefficients
 40 implications, 0 cliques
presolved problem has 3810 variables (58 bin, 0 int, 0 impl, 3752 cont) and 339 constraints
     32 constraints of type <varbound>
    299 constraints of type <linear>
      8 constraints of type <logicor>
Presolving Time: 1.85
transformed 7/100 original solutions to the transformed problem space

 time | node  | left  |LP iter|LP it/n|mem/heur|mdpt |vars |cons |rows |cuts |sepa|confs|strbr|  dualbound   | primalbound  |  gap   | compl. 
 32.7s|     1 |     0 | 11544 |     - |   463M |   0 |3810 | 339 | 331 |   0 |  0 |  11k|   0 | 7.564757e+03 | 7.577000e+03 |   0.16%| unknown
 32.9s|     1 |     0 | 11553 |     - |   463M |   0 |3810 | 339 | 335 |   4 |  1 |  11k|   0 | 7.564761e+03 | 7.577000e+03 |   0.16%| unknown
 33.1s|     1 |     0 | 11555 |     - |   463M |   0 |3810 | 339 | 337 |   6 |  2 |  11k|   0 | 7.564761e+03 | 7.577000e+03 |   0.16%| unknown
 33.3s|     1 |     0 | 11559 |     - |   463M |   0 |3810 | 339 | 339 |   8 |  3 |  11k|   0 | 7.564763e+03 | 7.577000e+03 |   0.16%| unknown
 33.5s|     1 |     0 | 11567 |     - |   463M |   0 |3810 | 339 | 340 |   9 |  4 |  11k|   0 | 7.564768e+03 | 7.577000e+03 |   0.16%| unknown
 33.7s|     1 |     0 | 11576 |     - |   463M |   0 |3810 | 339 | 342 |  11 |  5 |  11k|   0 | 7.564777e+03 | 7.577000e+03 |   0.16%| unknown
 33.9s|     1 |     0 | 11584 |     - |   463M |   0 |3810 | 339 | 344 |  13 |  6 |  11k|   0 | 7.564782e+03 | 7.577000e+03 |   0.16%| unknown
 34.1s|     1 |     0 | 11590 |     - |   463M |   0 |3810 | 339 | 346 |  15 |  7 |  11k|   0 | 7.564786e+03 | 7.577000e+03 |   0.16%| unknown
 34.3s|     1 |     0 | 11592 |     - |   463M |   0 |3810 | 339 | 347 |  16 |  8 |  11k|   0 | 7.564787e+03 | 7.577000e+03 |   0.16%| unknown
 35.0s|     1 |     0 | 12014 |     - |   463M |   0 |3810 | 341 | 347 |  16 | 10 |  11k|  21 | 7.565647e+03 | 7.577000e+03 |   0.15%| unknown
 35.2s|     1 |     0 | 12020 |     - |   463M |   0 |3810 | 341 | 349 |  18 | 11 |  11k|  21 | 7.565647e+03 | 7.577000e+03 |   0.15%| unknown
 35.2s|     1 |     0 | 12031 |     - |   463M |   0 |3810 | 341 | 350 |  19 | 12 |  11k|  21 | 7.565647e+03 | 7.577000e+03 |   0.15%| unknown
 35.3s|     1 |     0 | 12040 |     - |   463M |   0 |3810 | 340 | 350 |  19 | 12 |  11k|  27 | 7.565647e+03 | 7.577000e+03 |   0.15%| unknown
 35.3s|     1 |     0 | 12040 |     - |   463M |   0 |3810 | 340 | 350 |  19 | 12 |  11k|  27 | 7.565647e+03 | 7.577000e+03 |   0.15%| unknown
 35.5s|     1 |     0 | 12044 |     - |   464M |   0 |3810 | 340 | 351 |  20 | 13 |  11k|  27 | 7.565647e+03 | 7.577000e+03 |   0.15%| unknown
 time | node  | left  |LP iter|LP it/n|mem/heur|mdpt |vars |cons |rows |cuts |sepa|confs|strbr|  dualbound   | primalbound  |  gap   | compl. 
 35.5s|     1 |     0 | 12045 |     - |   464M |   0 |3810 | 340 | 234 |  21 | 14 |  11k|  27 | 7.565647e+03 | 7.577000e+03 |   0.15%| unknown
 35.6s|     1 |     0 | 12049 |     - |   464M |   0 |3810 | 339 | 234 |  21 | 14 |  11k|  29 | 7.565647e+03 | 7.577000e+03 |   0.15%| unknown
 35.7s|     1 |     0 | 12054 |     - |   464M |   0 |3810 | 339 | 237 |  24 | 15 |  11k|  29 | 7.565647e+03 | 7.577000e+03 |   0.15%| unknown
 35.7s|     1 |     0 | 12055 |     - |   464M |   0 |3810 | 338 | 237 |  24 | 16 |  11k|  32 | 7.565647e+03 | 7.577000e+03 |   0.15%| unknown
 35.8s|     1 |     0 | 12060 |     - |   464M |   0 |3810 | 338 | 238 |  25 | 17 |  11k|  32 | 7.565647e+03 | 7.577000e+03 |   0.15%| unknown
 35.8s|     1 |     0 | 12064 |     - |   464M |   0 |3810 | 338 | 238 |  25 | 18 |  11k|  33 | 7.565647e+03 | 7.577000e+03 |   0.15%| unknown
(run 4, node 1) restarting after 6 global fixings of integer variables

(restart) converted 22 cuts from the global cut pool into linear constraints

presolving:
(round 1, fast)       286 del vars, 4 del conss, 0 add conss, 0 chg bounds, 0 chg sides, 7 chg coeffs, 0 upgd conss, 40 impls, 0 clqs
(round 2, exhaustive) 286 del vars, 13 del conss, 0 add conss, 0 chg bounds, 6 chg sides, 7 chg coeffs, 0 upgd conss, 40 impls, 0 clqs
(round 3, exhaustive) 286 del vars, 15 del conss, 0 add conss, 0 chg bounds, 6 chg sides, 10 chg coeffs, 0 upgd conss, 40 impls, 0 clqs
(round 4, exhaustive) 286 del vars, 17 del conss, 0 add conss, 0 chg bounds, 6 chg sides, 10 chg coeffs, 0 upgd conss, 40 impls, 0 clqs
presolving (5 rounds: 5 fast, 4 medium, 4 exhaustive):
 286 deleted vars, 17 deleted constraints, 0 added constraints, 0 tightened bounds, 0 added holes, 6 changed sides, 10 changed coefficients
 40 implications, 0 cliques
presolved problem has 3524 variables (52 bin, 0 int, 0 impl, 3472 cont) and 343 constraints
     30 constraints of type <varbound>
    307 constraints of type <linear>
      6 constraints of type <logicor>
Presolving Time: 1.95
transformed 3/100 original solutions to the transformed problem space

 time | node  | left  |LP iter|LP it/n|mem/heur|mdpt |vars |cons |rows |cuts |sepa|confs|strbr|  dualbound   | primalbound  |  gap   | compl. 
 36.1s|     1 |     0 | 13074 |     - |   464M |   0 |3524 | 343 | 337 |   0 |  0 |  11k|  33 | 7.565647e+03 | 7.577000e+03 |   0.15%| unknown
 36.1s|     1 |     0 | 13074 |     - |   464M |   0 |3524 | 343 | 337 |   0 |  0 |  11k|  33 | 7.565647e+03 | 7.577000e+03 |   0.15%| unknown
 36.2s|     1 |     0 | 13074 |     - |   465M |   0 |3524 | 342 | 337 |   0 |  2 |  11k|  33 | 7.565647e+03 | 7.577000e+03 |   0.15%| unknown
 36.7s|     1 |     0 | 13635 |     - |   465M |   0 |3524 | 340 | 337 |   0 |  4 |  11k|  52 | 7.565647e+03 | 7.577000e+03 |   0.15%| unknown
 36.9s|     1 |     0 | 13637 |     - |   465M |   0 |3524 | 339 | 337 |   0 |  6 |  11k|  53 | 7.565647e+03 | 7.577000e+03 |   0.15%| unknown
 37.0s|     1 |     2 | 13637 |     - |   465M |   0 |3524 | 339 | 337 |   0 |  8 |  11k|  53 | 7.565647e+03 | 7.577000e+03 |   0.15%| unknown

SCIP Status        : problem is solved [optimal solution found]
Solving Time (sec) : 38.80
Solving Nodes      : 79 (total of 83 nodes in 5 runs)
Primal Bound       : +7.57700000000000e+03 (292 solutions)
Dual Bound         : +7.57700000000000e+03
Gap                : 0.00 %
Solve Status: optimal
Solve Time: 38.81 seconds
